Route #1: 12 37
Route #2: 60 90 102
Route #3: 17 15 50 116 66 23
Route #4: 53 33 32
Route #5: 45 75
Route #6: 52 44 97 14 49 24
Route #7: 56 82
Route #8: 64 107 41 67 72 54
Route #9: 10 120
Route #10: 103 35
Route #11: 81 16 73 110
Route #12: 112 18
Route #13: 43 106 86
Route #14: 76 21 91
Route #15: 100 99 92 123
Route #16: 78 124 2 34 6 70 59 28 13
Route #17: 62 85 30 111
Route #18: 8 5 48
Route #19: 61 83 122
Route #20: 38 96
Route #21: 69 98 29 20
Route #22: 113 39 57
Route #23: 95 58 4 7 77 101 121 84
Route #24: 74 42 87 114 11 19 9
Route #25: 94 47 22 40 118 68 25 109 117
Route #26: 115 88 89 105 51
Route #27: 55 36 79 63 46 1 27 108
Route #28: 3 31
Route #29: 80 65 104 71 119
Route #30: 93 26
Cost 55883.000000